
;this file is automatically generated: Mon Oct 26 19:31:23 CST 2020

;declarations generated

(declare-fun oclExcludes ( Int Int) Bool)
(declare-fun Cardinality ( Int) Int)
(declare-fun type_c62994dd_ec99_45c6_9a7c_38bc99ce6618_Class15 ( Int) Bool)
(declare-fun type_c62994dd_ec99_45c6_9a7c_38bc99ce6618_Class16 ( Int) Bool)
(declare-fun class41_Class41IntAttr1 ( Int) Int)
(declare-fun obj_0e4fc552_d61c_4ebc_ae8e_9d1951dfc2fb ( Int) Int)
(declare-fun type_c62994dd_ec99_45c6_9a7c_38bc99ce6618_Class41 ( Int) Bool)
(declare-fun oclSelect ( Int Bool) Int)
(declare-fun Enum0 ( Int) Int)
(declare-fun Enum1 ( Int) Int)
(declare-fun Enum2 ( Int) Int)
(declare-fun container_ ( Int) Int)
(declare-fun oclIncludes ( Int Int) Bool)
(declare-fun type_c62994dd_ec99_45c6_9a7c_38bc99ce6618_Class2 ( Int) Bool)
(declare-fun ObjAt ( Int Int) Int)

;formula(s) generated
(assert (! (forall ((v Int)) (=> (and (and (and ( type_c62994dd_ec99_45c6_9a7c_38bc99ce6618_Class41 v )  ( type_c62994dd_ec99_45c6_9a7c_38bc99ce6618_Class16 v ) ) ( type_c62994dd_ec99_45c6_9a7c_38bc99ce6618_Class15 v ) ) ( type_c62994dd_ec99_45c6_9a7c_38bc99ce6618_Class2 v ) ) (> ( class41_Class41IntAttr1 ( obj_0e4fc552_d61c_4ebc_ae8e_9d1951dfc2fb v )  )  8))):named l0))
(assert (exists ((o Int)) (and (and (and ( type_c62994dd_ec99_45c6_9a7c_38bc99ce6618_Class41 ( obj_0e4fc552_d61c_4ebc_ae8e_9d1951dfc2fb o )  )  ( type_c62994dd_ec99_45c6_9a7c_38bc99ce6618_Class16 ( obj_0e4fc552_d61c_4ebc_ae8e_9d1951dfc2fb o )  ) ) ( type_c62994dd_ec99_45c6_9a7c_38bc99ce6618_Class15 ( obj_0e4fc552_d61c_4ebc_ae8e_9d1951dfc2fb o )  ) ) ( type_c62994dd_ec99_45c6_9a7c_38bc99ce6618_Class2 ( obj_0e4fc552_d61c_4ebc_ae8e_9d1951dfc2fb o )  ) )))

 ;end of formula 